67,13
183,37
152,85
54,75
112,65
95,29
110,69
79,6
117,90
152,60
131,63
107,85
35,16
51,74
31,40
155,2
1,42
147,54
196,67
196,4
200,48
155,63
179,34
140,30
156,14
25,11
86,47
8,22
30,3
121,65
16,57
40,30
42,10
190,83
71,69
174,64
168,4
143,81
25,4
122,37
91,64
167,6
164,26
197,5
60,7
141,46
5,34
55,86
184,89
109,20
